0   48  10  73  84  59  17  45  67  50
48  0   40  25  61  43  53  89  20  64
10  40  0   84  28  70  89  73  32  20
73  25  84  0   50  67  42  35  90  19
84  61  28  50  0   47  62  70  39  58
59  43  70  67  47  0   51  36  83  44
17  53  89  42  62  51  0   76  55  29
45  89  73  35  70  36  76  0   92  11
67  20  32  90  39  83  55  92  0   74
50  64  20  19  58  44  29  11  74  0